c A SAT instance generated from a 3-CNF formula that had 10 clauses and 5 variables
p cnf 5 10
-3 4 -2 0
4 2 -5 0
-2 5 -3 0
-3 -4 5 0
-2 -4 -5 0
-1 3 5 0
4 -5 2 0
-3 -2 5 0
4 1 5 0
2 -4 1 0
%
0

66 40 24 99 51
